(declare-fun temp1007_1 () (_ BitVec 64))
(declare-fun temp1007_2 () (_ BitVec 64))
(declare-fun temp1007_3 () (_ BitVec 64))
(declare-fun ARGNAME_w_hh_NAMEEND_DIMSIZE
             ()
             (Array (_ BitVec 64) (_ BitVec 64)))
(declare-fun temp1007_4 () (_ BitVec 64))
(declare-fun temp1007_5 () (_ BitVec 64))
(declare-fun temp1007_6 () (_ BitVec 64))
(declare-fun temp1007_7 () (_ BitVec 64))
(declare-fun temp1007_8 () (_ BitVec 64))
(declare-fun temp1007_9 () (_ BitVec 64))
(declare-fun temp1007_10 () (_ BitVec 64))
(declare-fun temp1007_11 () (_ BitVec 64))
(declare-fun temp1007_12 () (_ BitVec 64))
(declare-fun temp1007_13 () (_ BitVec 64))
(declare-fun temp1007_14 () (_ BitVec 64))
(declare-fun temp1007_15 () (_ BitVec 64))
(declare-fun temp1007_16 () (_ BitVec 64))
(declare-fun temp1007_17 () (_ BitVec 64))
(declare-fun temp1007_18 () (_ BitVec 64))
(declare-fun temp1007_19 () (_ BitVec 64))
(declare-fun temp1007_20 () (_ BitVec 64))
(declare-fun temp1007_21 () (_ BitVec 64))
(declare-fun temp1007_22 () (_ BitVec 64))
(declare-fun temp1007_23 () (_ BitVec 64))
(declare-fun temp1007_24 () (_ BitVec 64))
(declare-fun ARGNAME_input_NAMEEND_DIMSIZE
             ()
             (Array (_ BitVec 64) (_ BitVec 64)))
(declare-fun temp1007_25 () (_ BitVec 64))
(declare-fun temp1007_26 () (_ BitVec 64))
(declare-fun temp1007_27 () (_ BitVec 64))
(declare-fun temp1007_28 () (_ BitVec 64))
(declare-fun temp1007_29 () (_ BitVec 64))
(declare-fun temp1007_30 () (_ BitVec 64))
(declare-fun temp1007_31 () (_ BitVec 64))
(declare-fun temp1007_32 () (_ BitVec 64))
(declare-fun temp1007_33 () (_ BitVec 64))
(declare-fun temp1007_34 () (_ BitVec 64))
(declare-fun temp1007_35 () (_ BitVec 64))
(declare-fun temp1007_36 () (_ BitVec 64))
(declare-fun temp1007_37 () (_ BitVec 64))
(declare-fun temp1007_38 () (_ BitVec 64))
(declare-fun temp1007_39 () (_ BitVec 64))
(declare-fun temp1007_40 () (_ BitVec 64))
(declare-fun temp1007_41 () (_ BitVec 64))
(declare-fun temp1007_42 () (_ BitVec 64))
(declare-fun temp1007_43 () (_ BitVec 64))
(declare-fun temp1007_44 () (_ BitVec 64))
(declare-fun var404256 () (_ BitVec 64))
(declare-fun k!0 () (_ BitVec 64))
(declare-fun k!1 () (_ BitVec 64))
(declare-fun k!2 () Bool)
(declare-fun ARGNAME_w_hh_NAMEEND_DIM () (_ BitVec 64))
(declare-fun ARGNAME_input_NAMEEND_DIM () (_ BitVec 64))
(declare-fun temp1007_45 () (_ BitVec 64))
(declare-fun temp1007_46 () (_ BitVec 64))
(declare-fun ARGNAME_b_ih_NAMEEND_DIMSIZE
             ()
             (Array (_ BitVec 64) (_ BitVec 64)))
(declare-fun temp1007_47 () (_ BitVec 64))
(declare-fun temp1007_48 () (_ BitVec 64))
(declare-fun temp1007_49 () (_ BitVec 64))
(declare-fun temp1007_50 () (_ BitVec 64))
(declare-fun temp1007_51 () (_ BitVec 64))
(declare-fun temp1007_52 () (_ BitVec 64))
(declare-fun temp1007_53 () (_ BitVec 64))
(declare-fun temp1007_54 () (_ BitVec 64))
(declare-fun temp1007_55 () (_ BitVec 64))
(declare-fun temp1007_56 () (_ BitVec 64))
(declare-fun temp1007_57 () (_ BitVec 64))
(declare-fun temp1007_58 () (_ BitVec 64))
(declare-fun temp1007_59 () (_ BitVec 64))
(declare-fun temp1007_60 () (_ BitVec 64))
(declare-fun temp1007_61 () (_ BitVec 64))
(declare-fun temp1007_62 () (_ BitVec 64))
(declare-fun temp1007_63 () (_ BitVec 64))
(declare-fun temp1007_64 () (_ BitVec 64))
(declare-fun temp1007_65 () (_ BitVec 64))
(declare-fun ARGNAME_b_ih_NAMEEND_DIM () (_ BitVec 64))
(declare-fun temp1007_66 () (_ BitVec 64))
(declare-fun var65706 () (_ BitVec 64))
(declare-fun temp1007_67 () (_ BitVec 64))
(declare-fun temp1007_68 () (_ BitVec 64))
(declare-fun temp1007_69 () (_ BitVec 64))
(declare-fun temp1007_70 () (_ BitVec 64))
(declare-fun temp1007_71 () (_ BitVec 64))
(declare-fun temp1007_72 () (_ BitVec 64))
(declare-fun var68976 () (_ BitVec 64))
(declare-fun temp1007_73 () (_ BitVec 64))
(declare-fun temp1007_74 () (_ BitVec 64))
(declare-fun temp1007_75 () (_ BitVec 64))
(declare-fun temp1007_76 () (_ BitVec 64))
(declare-fun temp1007_77 () (_ BitVec 64))
(declare-fun temp1007_78 () (_ BitVec 64))
(declare-fun temp1007_79 () (_ BitVec 64))
(declare-fun temp1007_80 () (_ BitVec 64))
(declare-fun var2041840 () (_ BitVec 64))
(declare-fun temp1007_81 () (_ BitVec 64))
(declare-fun temp1007_82 () (_ BitVec 64))
(declare-fun var2756425 () (_ BitVec 64))
(declare-fun temp1007_83 () (_ BitVec 64))
(declare-fun var3084353 () (_ BitVec 64))
(declare-fun temp1007_84 () (_ BitVec 64))
(declare-fun var3084354 () (_ BitVec 64))
(declare-fun temp1007_85 () (_ BitVec 64))
(declare-fun var3149899 () (_ BitVec 64))
(declare-fun temp1007_86 () (_ BitVec 64))
(declare-fun var3280971 () (_ BitVec 64))
(declare-fun temp1007_87 () (_ BitVec 64))
(declare-fun var3412043 () (_ BitVec 64))
(declare-fun temp1007_88 () (_ BitVec 64))
(declare-fun var3543115 () (_ BitVec 64))
(declare-fun temp1007_89 () (_ BitVec 64))
(declare-fun var3673929 () (_ BitVec 64))
(assert (= temp1007_1 #x0000000000000000))
(assert (= temp1007_2 temp1007_1))
(assert (= temp1007_3 (select ARGNAME_w_hh_NAMEEND_DIMSIZE temp1007_2)))
(assert (= temp1007_4 #x0000000000000001))
(assert (= temp1007_5 temp1007_4))
(assert (= temp1007_6 (select ARGNAME_w_hh_NAMEEND_DIMSIZE temp1007_5)))
(assert (= temp1007_7 #x0000000000000002))
(assert (= temp1007_8 temp1007_7))
(assert (= temp1007_9 (select ARGNAME_w_hh_NAMEEND_DIMSIZE temp1007_8)))
(assert (= temp1007_10 #x0000000000000003))
(assert (= temp1007_11 temp1007_10))
(assert (= temp1007_12 (select ARGNAME_w_hh_NAMEEND_DIMSIZE temp1007_11)))
(assert (= temp1007_13 #x0000000000000004))
(assert (= temp1007_14 temp1007_13))
(assert (= temp1007_15 (select ARGNAME_w_hh_NAMEEND_DIMSIZE temp1007_14)))
(assert (= temp1007_16 #x0000000000000005))
(assert (= temp1007_17 temp1007_16))
(assert (= temp1007_18 (select ARGNAME_w_hh_NAMEEND_DIMSIZE temp1007_17)))
(assert (= temp1007_19 #x0000000000000001))
(assert (= temp1007_20 temp1007_19))
(assert (= temp1007_21 (select ARGNAME_w_hh_NAMEEND_DIMSIZE temp1007_20)))
(assert (bvsgt ARGNAME_w_hh_NAMEEND_DIM temp1007_19))
(assert (bvsge temp1007_19 (bvneg ARGNAME_w_hh_NAMEEND_DIM)))
(assert (= temp1007_22 #x0000000000000000))
(assert (= temp1007_23 temp1007_22))
(assert (= temp1007_24 (select ARGNAME_input_NAMEEND_DIMSIZE temp1007_23)))
(assert (= temp1007_25 #x0000000000000001))
(assert (= temp1007_26 temp1007_25))
(assert (= temp1007_27 (select ARGNAME_input_NAMEEND_DIMSIZE temp1007_26)))
(assert (= temp1007_28 #x0000000000000002))
(assert (= temp1007_29 temp1007_28))
(assert (= temp1007_30 (select ARGNAME_input_NAMEEND_DIMSIZE temp1007_29)))
(assert (= temp1007_31 #x0000000000000003))
(assert (= temp1007_32 temp1007_31))
(assert (= temp1007_33 (select ARGNAME_input_NAMEEND_DIMSIZE temp1007_32)))
(assert (= temp1007_34 #x0000000000000004))
(assert (= temp1007_35 temp1007_34))
(assert (= temp1007_36 (select ARGNAME_input_NAMEEND_DIMSIZE temp1007_35)))
(assert (= temp1007_37 #x0000000000000005))
(assert (= temp1007_38 temp1007_37))
(assert (= temp1007_39 (select ARGNAME_input_NAMEEND_DIMSIZE temp1007_38)))
(assert (= temp1007_40 #x0000000000000001))
(assert (= temp1007_41 temp1007_40))
(assert (= temp1007_42 (select ARGNAME_input_NAMEEND_DIMSIZE temp1007_41)))
(assert (bvsgt ARGNAME_input_NAMEEND_DIM temp1007_40))
(assert (bvsge temp1007_40 (bvneg ARGNAME_input_NAMEEND_DIM)))
(assert (= temp1007_43 temp1007_21))
(assert (= var404256
   (ite (= temp1007_42 temp1007_43) #x0000000000000001 #x0000000000000000)))
(assert (= temp1007_44 #x0000000000000001))
(assert (= var404256 temp1007_44))
(assert (= temp1007_45 #x0000000000000000))
(assert (= temp1007_46 temp1007_45))
(assert (= temp1007_47 (select ARGNAME_b_ih_NAMEEND_DIMSIZE temp1007_46)))
(assert (= temp1007_48 #x0000000000000001))
(assert (= temp1007_49 temp1007_48))
(assert (= temp1007_50 (select ARGNAME_b_ih_NAMEEND_DIMSIZE temp1007_49)))
(assert (= temp1007_51 #x0000000000000002))
(assert (= temp1007_52 temp1007_51))
(assert (= temp1007_53 (select ARGNAME_b_ih_NAMEEND_DIMSIZE temp1007_52)))
(assert (= temp1007_54 #x0000000000000003))
(assert (= temp1007_55 temp1007_54))
(assert (= temp1007_56 (select ARGNAME_b_ih_NAMEEND_DIMSIZE temp1007_55)))
(assert (= temp1007_57 #x0000000000000004))
(assert (= temp1007_58 temp1007_57))
(assert (= temp1007_59 (select ARGNAME_b_ih_NAMEEND_DIMSIZE temp1007_58)))
(assert (= temp1007_60 #x0000000000000005))
(assert (= temp1007_61 temp1007_60))
(assert (= temp1007_62 (select ARGNAME_b_ih_NAMEEND_DIMSIZE temp1007_61)))
(assert (= temp1007_63 #x0000000000000001))
(assert (= temp1007_64 temp1007_63))
(assert (= temp1007_65 (select ARGNAME_b_ih_NAMEEND_DIMSIZE temp1007_64)))
(assert (bvsgt ARGNAME_b_ih_NAMEEND_DIM temp1007_63))
(assert (bvsge temp1007_63 (bvneg ARGNAME_b_ih_NAMEEND_DIM)))
(assert (= temp1007_66 #x0000000000000000))
(assert (= var65706 temp1007_66))
(assert (= temp1007_67 temp1007_65))
(assert (= temp1007_68 #x0000000000000000))
(assert (= temp1007_69 temp1007_68))
(assert (= temp1007_70 (select ARGNAME_input_NAMEEND_DIMSIZE temp1007_69)))
(assert (bvsgt ARGNAME_input_NAMEEND_DIM temp1007_68))
(assert (bvsge temp1007_68 (bvneg ARGNAME_input_NAMEEND_DIM)))
(assert (= temp1007_71 temp1007_67))
(assert (= temp1007_72 #x0000000000000001))
(assert (= var68976 temp1007_72))
(assert (= temp1007_73 temp1007_65))
(assert (= temp1007_74 #x0000000000000000))
(assert (= temp1007_75 temp1007_74))
(assert (= temp1007_76 (select ARGNAME_input_NAMEEND_DIMSIZE temp1007_75)))
(assert (bvsgt ARGNAME_input_NAMEEND_DIM temp1007_74))
(assert (bvsge temp1007_74 (bvneg ARGNAME_input_NAMEEND_DIM)))
(assert (= temp1007_77 temp1007_73))
(assert (= temp1007_78 #x0000000000000000))
(assert (= var65706 temp1007_78))
(assert (= temp1007_79 #x0000000000000001))
(assert (= var68976 temp1007_79))
(assert (= temp1007_80 #x0000000000000000))
(assert (= var2041840 temp1007_80))
(assert (= temp1007_81 #x0000000000000000))
(assert (= var2041840 temp1007_81))
(assert (= temp1007_82 #x0000000000000001))
(assert (= var2756425 temp1007_82))
(assert (= temp1007_83 #x0000000000000004))
(assert (= var3084353 temp1007_83))
(assert (= temp1007_84 #x0000000000000001))
(assert (= var3084354 temp1007_84))
(assert (= temp1007_85 #x0000000000000000))
(assert (= var3149899 temp1007_85))
(assert (= temp1007_86 #x0000000000000001))
(assert (= var3280971 temp1007_86))
(assert (= temp1007_87 #x0000000000000002))
(assert (= var3412043 temp1007_87))
(assert (= temp1007_88 #x0000000000000003))
(assert (= var3543115 temp1007_88))
(assert (= temp1007_89 #x0000000000000001))
(assert (= var3673929 temp1007_89))
(model-add temp1007_1 () (_ BitVec 64) #x0000000000000000)
(model-add temp1007_2 () (_ BitVec 64) #x0000000000000000)
(model-add temp1007_3
           ()
           (_ BitVec 64)
           (select ARGNAME_w_hh_NAMEEND_DIMSIZE #x0000000000000000))
(model-add temp1007_4 () (_ BitVec 64) #x0000000000000001)
(model-add temp1007_5 () (_ BitVec 64) #x0000000000000001)
(model-add temp1007_6
           ()
           (_ BitVec 64)
           (select ARGNAME_w_hh_NAMEEND_DIMSIZE #x0000000000000001))
(model-add temp1007_7 () (_ BitVec 64) #x0000000000000002)
(model-add temp1007_8 () (_ BitVec 64) #x0000000000000002)
(model-add temp1007_9
           ()
           (_ BitVec 64)
           (select ARGNAME_w_hh_NAMEEND_DIMSIZE #x0000000000000002))
(model-add temp1007_10 () (_ BitVec 64) #x0000000000000003)
(model-add temp1007_11 () (_ BitVec 64) #x0000000000000003)
(model-add temp1007_12
           ()
           (_ BitVec 64)
           (select ARGNAME_w_hh_NAMEEND_DIMSIZE #x0000000000000003))
(model-add temp1007_13 () (_ BitVec 64) #x0000000000000004)
(model-add temp1007_14 () (_ BitVec 64) #x0000000000000004)
(model-add temp1007_15
           ()
           (_ BitVec 64)
           (select ARGNAME_w_hh_NAMEEND_DIMSIZE #x0000000000000004))
(model-add temp1007_16 () (_ BitVec 64) #x0000000000000005)
(model-add temp1007_17 () (_ BitVec 64) #x0000000000000005)
(model-add temp1007_18
           ()
           (_ BitVec 64)
           (select ARGNAME_w_hh_NAMEEND_DIMSIZE #x0000000000000005))
(model-add temp1007_19 () (_ BitVec 64) #x0000000000000001)
(model-add temp1007_20 () (_ BitVec 64) #x0000000000000001)
(model-add temp1007_21
           ()
           (_ BitVec 64)
           (select ARGNAME_w_hh_NAMEEND_DIMSIZE #x0000000000000001))
(model-add temp1007_22 () (_ BitVec 64) #x0000000000000000)
(model-add temp1007_23 () (_ BitVec 64) #x0000000000000000)
(model-add temp1007_24
           ()
           (_ BitVec 64)
           (select ARGNAME_input_NAMEEND_DIMSIZE #x0000000000000000))
(model-add temp1007_25 () (_ BitVec 64) #x0000000000000001)
(model-add temp1007_26 () (_ BitVec 64) #x0000000000000001)
(model-add temp1007_27
           ()
           (_ BitVec 64)
           (select ARGNAME_input_NAMEEND_DIMSIZE #x0000000000000001))
(model-add temp1007_28 () (_ BitVec 64) #x0000000000000002)
(model-add temp1007_29 () (_ BitVec 64) #x0000000000000002)
(model-add temp1007_30
           ()
           (_ BitVec 64)
           (select ARGNAME_input_NAMEEND_DIMSIZE #x0000000000000002))
(model-add temp1007_31 () (_ BitVec 64) #x0000000000000003)
(model-add temp1007_32 () (_ BitVec 64) #x0000000000000003)
(model-add temp1007_33
           ()
           (_ BitVec 64)
           (select ARGNAME_input_NAMEEND_DIMSIZE #x0000000000000003))
(model-add temp1007_34 () (_ BitVec 64) #x0000000000000004)
(model-add temp1007_35 () (_ BitVec 64) #x0000000000000004)
(model-add temp1007_36
           ()
           (_ BitVec 64)
           (select ARGNAME_input_NAMEEND_DIMSIZE #x0000000000000004))
(model-add temp1007_37 () (_ BitVec 64) #x0000000000000005)
(model-add temp1007_38 () (_ BitVec 64) #x0000000000000005)
(model-add temp1007_39
           ()
           (_ BitVec 64)
           (select ARGNAME_input_NAMEEND_DIMSIZE #x0000000000000005))
(model-add temp1007_40 () (_ BitVec 64) #x0000000000000001)
(model-add temp1007_41 () (_ BitVec 64) #x0000000000000001)
(model-add temp1007_42
           ()
           (_ BitVec 64)
           (select ARGNAME_input_NAMEEND_DIMSIZE #x0000000000000001))
(model-add temp1007_43
           ()
           (_ BitVec 64)
           (select ARGNAME_w_hh_NAMEEND_DIMSIZE #x0000000000000001))
(model-add temp1007_44 () (_ BitVec 64) #x0000000000000001)
(model-add var404256 () (_ BitVec 64) #x0000000000000001)
(model-del k!0)
(model-add ARGNAME_input_NAMEEND_DIMSIZE
           ()
           (Array (_ BitVec 64) (_ BitVec 64))
           ((as const (Array (_ BitVec 64) (_ BitVec 64))) k!0))
(model-del k!1)
(model-add ARGNAME_w_hh_NAMEEND_DIMSIZE
           ()
           (Array (_ BitVec 64) (_ BitVec 64))
           ((as const (Array (_ BitVec 64) (_ BitVec 64))) k!1))
(model-del k!2)
(model-add k!0 () (_ BitVec 64) (ite k!2 k!1 (bvnot k!1)))





